100 91803

 725 166
500 435
571 632
713 386
778 358
272 1
147 805
292 890
508 970
343 720
569 549
54 270
510 1000
368 590
535 682
423 683
285 846
905 10
185 221
682 666
925 896
539 686
877 414
125 362
494 738
458 742
9 608
444 292
370 926
670 552
939 791
86 215
328 345
445 875
456 51
775 513
444 482
28 752
711 282
885 220
514 927
582 572
163 105
221 194
236 999
431 196
929 611
522 421
193 886
267 756
385 597
624 11
441 880
393 445
565 932
242 496
79 695
25 70
252 746
92 338
337 352
773 119
717 147
611 186
853 329
283 892
886 369
400 725
401 83
406 592
99 482
976 978
139 847
341 455
320 776
75 194
153 563
45 75
293 349
867 226
340 719
124 491
646 752
997 516
233 87
280 736
972 834
179 904
512 572
240 754
933 753
982 156
815 165
315 71
404 320
243 474
891 998
915 431
419 727
657 694
